\* Problem: Unknown *\

Maximize
 obj: + xp_0_0 + xp_0_1 + xp_0_2 + xp_0_3 + xp_0_4 + xp_0_5 + xp_0_6
 + xp_0_7 + xp_0_8 + xp_0_9 + xp_1_0 + xp_1_1 + xp_1_2 + xp_2_0 + xp_2_1
 + xp_2_2 + xp_2_3 + xp_2_4 + xp_3_0 + xp_3_1 + xp_3_2 + xp_3_3 + xp_4_0
 + xp_4_1 + xp_5_0 + xp_5_1 + xp_5_2 + xp_6_0 + xp_6_1 + xp_7_0 + xp_7_1
 + xp_8_0 + xp_8_1 + xp_9_0 + xp_10_0 + xp_10_1 + xp_11_0 + xp_11_1
 + xp_11_2 + xp_11_3 + xp_12_0 + xp_13_0 + xp_13_1 + xp_14_0 + xp_14_1
 + xp_14_2 + xp_15_0 + xp_16_0 + xp_16_1 + xp_17_0 + xp_17_1 + xp_17_2
 + xp_17_3 + xp_17_4 + xp_17_5 + xp_17_6 + xp_17_7 + xp_18_0 + xp_18_1
 + xp_18_2 + xp_18_3 + xp_18_4 + xp_19_0 + xp_19_1 + xp_19_2 + xp_19_3
 + xp_19_4 + xp_19_5 + xp_20_0 + xp_20_1 + xp_20_2 + xp_20_3 + xp_21_0
 + xp_21_1 + xp_21_2 + xp_21_3 + xp_21_4 + xp_21_5 + xp_22_0 + xp_22_1
 + xp_22_2 + xp_22_3 + xp_22_4 + xp_22_5 + xp_23_0 + xp_23_1 + xp_23_2
 + xp_23_3 + xp_23_4 + xp_23_5

Subject To
 r_1: 0 xp_0_0 <= 28.3056478405316
 r_2: + xp_23_4 + xp_22_3 + xp_18_3 + xp_18_2 + xp_5_2 + xp_2_3
 <= 27.9004491017964
 r_3: + xp_23_5 + xp_21_1 + xp_19_5 + xp_17_4 + xp_6_1 <= 30
 r_4: + xp_18_4 + xp_17_1 + xp_15_0 + xp_3_3 <= 30
 r_5: + xp_18_0 + xp_0_7 <= 27.290625
 r_6: + xp_18_1 <= 30
 r_7: + xp_20_3 <= 28.3056478405316
 r_8: + xp_22_5 + xp_11_2 + xp_5_1 + xp_3_2 + xp_2_2 <= 27.9004491017964
 r_9: + xp_23_2 + xp_17_6 + xp_11_1 + xp_3_1 <= 30
 r_10: + xp_3_0 <= 30
 r_11: + xp_18_1 + xp_11_3 + xp_0_9 <= 27.290625
 r_12: + xp_11_0 + xp_3_3 <= 30
 r_13: 0 xp_0_0 <= 30
 r_14: + xp_21_5 + xp_19_3 + xp_14_0 + xp_0_4 + xp_0_1
 <= 27.9004491017964
 r_15: + xp_21_0 + xp_19_4 <= 28.3056478405316
 r_16: + xp_22_1 + xp_21_4 + xp_14_2 + xp_0_5 + xp_0_3 + xp_0_2
 <= 28.3056478405316
 r_17: + xp_0_0 <= 27.290625
 r_18: + xp_21_1 + xp_19_5 + xp_4_0 + xp_0_7 <= 28.3056478405316
 r_19: + xp_19_0 + xp_0_9 <= 28.3056478405316
 r_20: + xp_21_3 + xp_21_2 + xp_19_2 + xp_19_1 + xp_14_1 + xp_4_1
 + xp_0_8 + xp_0_6 <= 28.3056478405316
 r_21: + xp_20_1 <= 27.9004491017964
 r_22: + xp_21_5 + xp_21_3 + xp_7_1 <= 27.9004491017964
 r_23: + xp_22_5 + xp_22_3 + xp_22_2 + xp_17_3 <= 27.9004491017964
 r_24: + xp_23_4 + xp_23_3 + xp_18_3 + xp_3_2 + xp_0_8 + xp_0_4
 <= 29.2225609756098
 r_25: 0 xp_0_0 <= 27.9004491017964
 r_26: + xp_18_2 + xp_0_6 + xp_0_1 <= 27.290625
 r_27: + xp_11_2 + xp_4_1 <= 27.9004491017964
 r_28: + xp_19_3 + xp_19_2 + xp_10_1 <= 27.9004491017964
 r_29: + xp_20_2 <= 28.3056478405316
 r_30: + xp_2_0 <= 27.9004491017964
 r_31: + xp_23_5 + xp_23_2 + xp_17_6 + xp_17_4 + xp_6_1 + xp_3_1
 + xp_2_4 <= 29.2225609756098
 r_32: + xp_2_1 <= 30
 r_33: + xp_11_1 + xp_2_3 <= 30
 r_34: + xp_19_5 + xp_19_4 + xp_2_2 <= 30
 r_35: 0 xp_0_0 <= 28.3056478405316
 r_36: + xp_14_2 + xp_9_0 <= 27.9004491017964
 r_37: + xp_21_4 + xp_13_1 + xp_8_1 + xp_0_3 <= 29.2225609756098
 r_38: + xp_1_1 <= 30
 r_39: + xp_17_3 + xp_17_2 + xp_0_5 <= 30
 r_40: + xp_0_2 <= 27.290625
 r_41: + xp_12_0 + xp_2_4 <= 29.2225609756098
 r_42: + xp_21_4 <= 29.2225609756098
 r_43: + xp_22_4 + xp_16_0 <= 29.2225609756098
 r_44: + xp_23_5 + xp_23_4 + xp_23_3 + xp_23_2 + xp_23_1 + xp_16_1
 + xp_1_2 <= 29.2225609756098
 r_45: + xp_17_6 + xp_17_5 + xp_17_4 + xp_3_2 + xp_3_1
 <= 29.2225609756098
 r_46: + xp_18_3 + xp_0_8 + xp_0_4 + xp_0_3 <= 27.290625
 r_47: + xp_16_1 + xp_13_1 <= 30
 r_48: + xp_13_0 <= 29.2225609756098
 r_49: + xp_17_7 <= 30
 r_50: 0 xp_0_0 <= 27.290625
 r_51: + xp_8_1 + xp_1_1 <= 30
 r_52: + xp_8_0 + xp_1_2 <= 29.2225609756098
 r_53: + xp_1_0 <= 30
 r_54: + xp_18_4 + xp_0_5 <= 27.290625
 r_55: 0 xp_0_0 <= 30
 r_56: 0 xp_0_0 <= 30
 r_57: + xp_22_1 <= 27.290625
 r_58: + xp_23_3 + xp_22_2 + xp_17_3 + xp_5_0 <= 27.290625
 r_59: + xp_22_0 + xp_17_2 <= 27.290625
 r_60: + xp_23_1 + xp_22_4 + xp_17_5 + xp_6_0 <= 27.290625
 r_61: + xp_23_0 + xp_17_7 <= 27.290625
 r_62: + xp_17_0 <= 27.290625
 r_63: + xp_23_5 + xp_23_4 + xp_22_3 + xp_17_4 + xp_17_1 + xp_11_3
 + xp_6_1 + xp_5_2 <= 27.290625
 r_64: + xp_23_2 + xp_22_5 + xp_17_6 + xp_5_1 <= 27.290625
 r_65: + xp_21_3 + xp_20_1 + xp_19_2 + xp_14_1 + xp_10_1 + xp_7_1
 + xp_4_1 + xp_2_1 + xp_0_8 + xp_0_6 <= 27.9004491017964
 r_66: + xp_21_2 + xp_20_2 + xp_7_0 <= 30
 r_67: + xp_20_3 + xp_19_1 + xp_10_0 <= 30
 r_68: + xp_20_0 <= 28.3056478405316

Bounds
 0 <= xp_0_0 <= 28.1262947466578
 0 <= xp_0_1 <= 4.20038213881939
 0 <= xp_0_2 <= 13.7131155284273
 0 <= xp_0_3 <= 2.28551925473788
 0 <= xp_0_4 <= 4.57103850947576
 0 <= xp_0_5 <= 4.57103850947576
 0 <= xp_0_6 <= 3.68564663434435
 0 <= xp_0_7 <= 0.700063689803232
 0 <= xp_0_8 <= 0.700063689803232
 0 <= xp_0_9 <= 0.700063689803232
 0 <= xp_1_0 <= 19.9931282054408
 0 <= xp_1_1 <= 14.7563407922524
 0 <= xp_1_2 <= 0.665748903712598
 0 <= xp_2_0 <= 22.4433785459831
 0 <= xp_2_1 <= 0.62456841778073
 0 <= xp_2_2 <= 2.28551925473788
 0 <= xp_2_3 <= 7.69388059837942
 0 <= xp_2_4 <= 1.87370525334219
 0 <= xp_3_0 <= 26.3967097664809
 0 <= xp_3_1 <= 3.12285123098067
 0 <= xp_3_2 <= 2.51199592872837
 0 <= xp_3_3 <= 0.418665988121395
 0 <= xp_4_0 <= 24.1592184133621
 0 <= xp_4_1 <= 2.19629258303291
 0 <= xp_5_0 <= 10.9814629151646
 0 <= xp_5_1 <= 10.9814629151646
 0 <= xp_5_2 <= 4.39258516606583
 0 <= xp_6_0 <= 17.7899699225666
 0 <= xp_6_1 <= 5.92998997418887
 0 <= xp_7_0 <= 18.9430235286589
 0 <= xp_7_1 <= 3.78860470573178
 0 <= xp_8_0 <= 17.0212675185051
 0 <= xp_8_1 <= 3.40425350370102
 0 <= xp_9_0 <= 18.9430235286589
 0 <= xp_10_0 <= 17.364438234604
 0 <= xp_10_1 <= 1.57858529405491
 0 <= xp_11_0 <= 25.1407118021167
 0 <= xp_11_1 <= 13.7131155284273
 0 <= xp_11_2 <= 9.14207701895153
 0 <= xp_11_3 <= 6.85655776421364
 0 <= xp_12_0 <= 17.7899699225666
 0 <= xp_13_0 <= 14.4131700761535
 0 <= xp_13_1 <= 2.8826340152307
 0 <= xp_14_0 <= 10.9814629151646
 0 <= xp_14_1 <= 4.11804859318672
 0 <= xp_14_2 <= 1.37268286439557
 0 <= xp_15_0 <= 16.3074724290194
 0 <= xp_16_0 <= 13.0404872117579
 0 <= xp_16_1 <= 2.60809744235159
 0 <= xp_17_0 <= 27.4468098722242
 0 <= xp_17_1 <= 1.53053910828181
 0 <= xp_17_2 <= 5.3465974713015
 0 <= xp_17_3 <= 3.06107821656362
 0 <= xp_17_4 <= 1.53053910828181
 0 <= xp_17_5 <= 1.53053910828181
 0 <= xp_17_6 <= 2.28551925473788
 0 <= xp_17_7 <= 3.06107821656362
 0 <= xp_18_0 <= 20.9883164255698
 0 <= xp_18_1 <= 14.1592306027981
 0 <= xp_18_2 <= 5.01715358384656
 0 <= xp_18_3 <= 1.36581716455434
 0 <= xp_18_4 <= 2.28551925473788
 0 <= xp_19_0 <= 27.7899851593616
 0 <= xp_19_1 <= 3.97391003586742
 0 <= xp_19_2 <= 2.64927335724494
 0 <= xp_19_3 <= 2.64927335724494
 0 <= xp_19_4 <= 4.93479261198283
 0 <= xp_19_5 <= 1.32463667862247
 0 <= xp_20_0 <= 27.6527168729221
 0 <= xp_20_1 <= 5.02401014161077
 0 <= xp_20_2 <= 4.79752432554327
 0 <= xp_20_3 <= 5.02401014161077
 0 <= xp_21_0 <= 25.0652073880172
 0 <= xp_21_1 <= 2.21001484063836
 0 <= xp_21_2 <= 3.31502226095754
 0 <= xp_21_3 <= 1.10500742031918
 0 <= xp_21_4 <= 4.49553409537624
 0 <= xp_21_5 <= 4.49553409537624
 0 <= xp_22_0 <= 22.1551105734215
 0 <= xp_22_1 <= 1.93547826775925
 0 <= xp_22_2 <= 11.0775552867108
 0 <= xp_22_3 <= 0.967739133879624
 0 <= xp_22_4 <= 1.93547826775925
 0 <= xp_22_5 <= 0.967739133879624
 0 <= xp_23_0 <= 24.4406298281594
 0 <= xp_23_1 <= 4.83869566939812
 0 <= xp_23_2 <= 5.53877764335539
 0 <= xp_23_3 <= 0.967739133879624
 0 <= xp_23_4 <= 0.967739133879624
 0 <= xp_23_5 <= 2.28551925473788

End
